certificates/rado_a13_c28_N25.drat
-23 -25 0
d -23 -2 -25 0
-2 -3 23 0
-3 -24 23 0
3 -25 0
-25 0
-2 23 0
d -2 -3 23 0
23 0
-2 -14 0
-14 0
3 0
-12 0
2 0
-4 0
-21 0
-13 0
-5 0
-1 0
0
